NPROCS=0
This instance is clustered!
Gurobi Optimizer version 9.0.0 build v9.0.0rc2 (linux64)
Optimize a model with 38 rows, 362 columns and 722 nonzeros
Model fingerprint: 0xa3ba44e6
Variable types: 1 continuous, 361 integer (361 binary)
Coefficient statistics:
  Matrix range     [1e+00, 1e+00]
  Objective range  [1e+00, 4e+02]
  Bounds range     [1e+00, 1e+00]
  RHS range        [1e+00, 1e+00]
Presolve removed 2 rows and 54 columns
Presolve time: 0.00s
Presolved: 36 rows, 308 columns, 614 nonzeros
Variable types: 1 continuous, 307 integer (307 binary)

Root relaxation: objective 4.428412e+02, 29 iterations, 0.00 seconds

    Nodes    |    Current Node    |     Objective Bounds      |     Work
 Expl Unexpl |  Obj  Depth IntInf | Incumbent    BestBd   Gap | It/Node Time

     0     0  530.16906    0   12          -  530.16906      -     -    0s
     0     0  598.45692    0   20          -  598.45692      -     -    0s
     0     0  677.30713    0   18          -  677.30713      -     -    0s
     0     0  742.23608    0   12          -  742.23608      -     -    0s
     0     2  812.79168    0   14          -  812.79168      -     -    0s
*  475   414              39     931.2369690  834.54284  10.4%   4.8    0s
*  513   416              30     929.4458368  834.54284  10.2%   4.7    0s
H  576   432                     922.5923443  837.87356  9.18%   4.8    0s
H  596   434                     921.8317728  840.86099  8.78%   4.8    0s
*  837   563              24     920.7615498  842.31383  8.52%   4.6    0s
  9081  2308  909.82262   14    6  920.76155  884.84076  3.90%   4.8    5s
 13535  2338 infeasible   12       920.76155  896.29559  2.66%   4.8   10s
 16344  1753     cutoff   14       920.76155  903.98764  1.82%   4.8   16s
 18373   983  919.56786   14   12  920.76155  909.72245  1.20%   4.7   20s

Cutting planes:
  Gomory: 1
  Lazy constraints: 4160

Explored 20237 nodes (95516 simplex iterations) in 22.92 seconds
Thread count was 12 (of 12 available processors)

Solution count 5: 920.762 921.832 922.592 ... 931.237

Optimal solution found (tolerance 1.00e-04)
Best objective 9.207615498280e+02, best bound 9.207615498280e+02, gap 0.0000%

User-callback calls 51615, time in user-callback 0.39 sec
/projects/academic/josewalt/caigao/RRARP_BD/BendersDecomp/ret/model_outs/n_17_e_8_algo_2.out
 =====>>>>> Solution is written to file in <../ret/model_outs> !!!
===>> All Done!
